data/lp_files/pEFS/57_6.lp
\ Model foo
\ LP format - for model browsing. Use MPS format to capture full model detail.
Minimize
  z
Subject To
 allocateEach[1]: x[1,1] + x[2,1] + x[3,1] = 1
 allocateEach[2]: x[1,2] + x[2,2] + x[3,2] = 1
 allocateEach[3]: x[1,3] + x[2,3] + x[3,3] = 1
 allocateEach[4]: x[1,4] + x[2,4] + x[3,4] = 1
 allocateEach[5]: x[1,5] + x[2,5] + x[3,5] = 1
 allocateEach[6]: x[1,6] + x[2,6] + x[3,6] = 1
 allocateEach[7]: x[1,7] + x[2,7] + x[3,7] = 1
 allocateEach[8]: x[1,8] + x[2,8] + x[3,8] = 1
 allocateEach[9]: x[1,9] + x[2,9] + x[3,9] = 1
 allocateEach[10]: x[1,10] + x[2,10] + x[3,10] = 1
 allocateEach[11]: x[1,11] + x[2,11] + x[3,11] = 1
 allocateEach[12]: x[1,12] + x[2,12] + x[3,12] = 1
 allocateEach[13]: x[1,13] + x[2,13] + x[3,13] = 1
 allocateEach[14]: x[1,14] + x[2,14] + x[3,14] = 1
 allocateEach[15]: x[1,15] + x[2,15] + x[3,15] = 1
 allocateEach[16]: x[1,16] + x[2,16] + x[3,16] = 1
 allocateEach[17]: x[1,17] + x[2,17] + x[3,17] = 1
 allocateAllCash: cashProportion[1] + cashProportion[2] + cashProportion[3]
   = 1
 findWorstP[1,2]: z + 0.0440368588508582 cashProportion[1]
   - 0.0440368588508582 cashProportion[2] + 0.0085541598317792 x[1,1]
   + 0.097651734501778 x[1,2] + 0.00987526559730494 x[1,3]
   + 0.0834828751665144 x[1,4] + 0.0344588420507965 x[1,5]
   + 0.0731562317659881 x[1,6] + 0.0941287857937093 x[1,7]
   + 0.1090462717294375 x[1,8] + 0.1001398170268515 x[1,9]
   + 0.0238679774971651 x[1,10] + 0.0456992502724781 x[1,11]
   + 0.0887342705844792 x[1,12] + 0.090594827870928 x[1,13]
   + 0.0430130018825757 x[1,14] + 0.0211266830336992 x[1,15]
   + 0.0314313080048 x[1,16] + 0.00100183853885702 x[1,17]
   - 0.0085541598317792 x[2,1] - 0.097651734501778 x[2,2]
   - 0.00987526559730494 x[2,3] - 0.0834828751665144 x[2,4]
   - 0.0344588420507965 x[2,5] - 0.0731562317659881 x[2,6]
   - 0.0941287857937093 x[2,7] - 0.1090462717294375 x[2,8]
   - 0.1001398170268515 x[2,9] - 0.0238679774971651 x[2,10]
   - 0.0456992502724781 x[2,11] - 0.0887342705844792 x[2,12]
   - 0.090594827870928 x[2,13] - 0.0430130018825757 x[2,14]
   - 0.0211266830336992 x[2,15] - 0.0314313080048 x[2,16]
   - 0.00100183853885702 x[2,17] >= 0
 findWorstP[1,3]: z + 0.0440368588508582 cashProportion[1]
   - 0.0440368588508582 cashProportion[3] + 0.0085541598317792 x[1,1]
   + 0.097651734501778 x[1,2] + 0.00987526559730494 x[1,3]
   + 0.0834828751665144 x[1,4] + 0.0344588420507965 x[1,5]
   + 0.0731562317659881 x[1,6] + 0.0941287857937093 x[1,7]
   + 0.1090462717294375 x[1,8] + 0.1001398170268515 x[1,9]
   + 0.0238679774971651 x[1,10] + 0.0456992502724781 x[1,11]
   + 0.0887342705844792 x[1,12] + 0.090594827870928 x[1,13]
   + 0.0430130018825757 x[1,14] + 0.0211266830336992 x[1,15]
   + 0.0314313080048 x[1,16] + 0.00100183853885702 x[1,17]
   - 0.0085541598317792 x[3,1] - 0.097651734501778 x[3,2]
   - 0.00987526559730494 x[3,3] - 0.0834828751665144 x[3,4]
   - 0.0344588420507965 x[3,5] - 0.0731562317659881 x[3,6]
   - 0.0941287857937093 x[3,7] - 0.1090462717294375 x[3,8]
   - 0.1001398170268515 x[3,9] - 0.0238679774971651 x[3,10]
   - 0.0456992502724781 x[3,11] - 0.0887342705844792 x[3,12]
   - 0.090594827870928 x[3,13] - 0.0430130018825757 x[3,14]
   - 0.0211266830336992 x[3,15] - 0.0314313080048 x[3,16]
   - 0.00100183853885702 x[3,17] >= 0
 findWorstP[2,1]: z - 0.0425034534055892 cashProportion[1]
   + 0.0425034534055892 cashProportion[2] - 0.0348740835192859 x[1,1]
   - 0.0972904048453937 x[1,2] - 0.0868451811709701 x[1,3]
   - 0.1056317075762406 x[1,4] - 0.0141430241207098 x[1,5]
   - 0.024365104664754 x[1,6] - 0.00567421102964616 x[1,7]
   - 0.0110934013388588 x[1,8] - 0.1046222505578578 x[1,9]
   - 0.0822866857932207 x[1,10] - 0.0603230262458825 x[1,11]
   - 0.0284135586016364 x[1,12] - 0.0535118478376368 x[1,13]
   - 0.00423971947720752 x[1,14] - 0.1029539900116885 x[1,15]
   - 0.0792583147380725 x[1,16] - 0.0619700350653491 x[1,17]
   + 0.0348740835192859 x[2,1] + 0.0972904048453937 x[2,2]
   + 0.0868451811709701 x[2,3] + 0.1056317075762406 x[2,4]
   + 0.0141430241207098 x[2,5] + 0.024365104664754 x[2,6]
   + 0.00567421102964616 x[2,7] + 0.0110934013388588 x[2,8]
   + 0.1046222505578578 x[2,9] + 0.0822866857932207 x[2,10]
   + 0.0603230262458825 x[2,11] + 0.0284135586016364 x[2,12]
   + 0.0535118478376368 x[2,13] + 0.00423971947720752 x[2,14]
   + 0.1029539900116885 x[2,15] + 0.0792583147380725 x[2,16]
   + 0.0619700350653491 x[2,17] >= 0
 findWorstP[2,3]: z + 0.0425034534055892 cashProportion[2]
   - 0.0425034534055892 cashProportion[3] + 0.0348740835192859 x[2,1]
   + 0.0972904048453937 x[2,2] + 0.0868451811709701 x[2,3]
   + 0.1056317075762406 x[2,4] + 0.0141430241207098 x[2,5]
   + 0.024365104664754 x[2,6] + 0.00567421102964616 x[2,7]
   + 0.0110934013388588 x[2,8] + 0.1046222505578578 x[2,9]
   + 0.0822866857932207 x[2,10] + 0.0603230262458825 x[2,11]
   + 0.0284135586016364 x[2,12] + 0.0535118478376368 x[2,13]
   + 0.00423971947720752 x[2,14] + 0.1029539900116885 x[2,15]
   + 0.0792583147380725 x[2,16] + 0.0619700350653491 x[2,17]
   - 0.0348740835192859 x[3,1] - 0.0972904048453937 x[3,2]
   - 0.0868451811709701 x[3,3] - 0.1056317075762406 x[3,4]
   - 0.0141430241207098 x[3,5] - 0.024365104664754 x[3,6]
   - 0.00567421102964616 x[3,7] - 0.0110934013388588 x[3,8]
   - 0.1046222505578578 x[3,9] - 0.0822866857932207 x[3,10]
   - 0.0603230262458825 x[3,11] - 0.0284135586016364 x[3,12]
   - 0.0535118478376368 x[3,13] - 0.00423971947720752 x[3,14]
   - 0.1029539900116885 x[3,15] - 0.0792583147380725 x[3,16]
   - 0.0619700350653491 x[3,17] >= 0
 findWorstP[3,1]: z - 0.0389195921226746 cashProportion[1]
   + 0.0389195921226746 cashProportion[3] - 0.0870533976803923 x[1,1]
   - 0.080485716509691 x[1,2] - 0.0970557328559197 x[1,3]
   - 0.0148770140888923 x[1,4] - 0.0388904024285825 x[1,5]
   - 0.0856425624659453 x[1,6] - 0.0351930411769285 x[1,7]
   - 0.0731980228847202 x[1,8] - 0.0743948003424924 x[1,9]
   - 0.0854576944033626 x[1,10] - 0.018117070133105 x[1,11]
   - 0.0234490542539114 x[1,12] - 0.0647622012921305 x[1,13]
   - 0.0426461430684206 x[1,14] - 0.0167354246127501 x[1,15]
   - 0.0944092005915778 x[1,16] - 0.0287129290885031 x[1,17]
   + 0.0870533976803923 x[3,1] + 0.080485716509691 x[3,2]
   + 0.0970557328559197 x[3,3] + 0.0148770140888923 x[3,4]
   + 0.0388904024285825 x[3,5] + 0.0856425624659453 x[3,6]
   + 0.0351930411769285 x[3,7] + 0.0731980228847202 x[3,8]
   + 0.0743948003424924 x[3,9] + 0.0854576944033626 x[3,10]
   + 0.018117070133105 x[3,11] + 0.0234490542539114 x[3,12]
   + 0.0647622012921305 x[3,13] + 0.0426461430684206 x[3,14]
   + 0.0167354246127501 x[3,15] + 0.0944092005915778 x[3,16]
   + 0.0287129290885031 x[3,17] >= 0
 findWorstP[3,2]: z - 0.0389195921226746 cashProportion[2]
   + 0.0389195921226746 cashProportion[3] - 0.0870533976803923 x[2,1]
   - 0.080485716509691 x[2,2] - 0.0970557328559197 x[2,3]
   - 0.0148770140888923 x[2,4] - 0.0388904024285825 x[2,5]
   - 0.0856425624659453 x[2,6] - 0.0351930411769285 x[2,7]
   - 0.0731980228847202 x[2,8] - 0.0743948003424924 x[2,9]
   - 0.0854576944033626 x[2,10] - 0.018117070133105 x[2,11]
   - 0.0234490542539114 x[2,12] - 0.0647622012921305 x[2,13]
   - 0.0426461430684206 x[2,14] - 0.0167354246127501 x[2,15]
   - 0.0944092005915778 x[2,16] - 0.0287129290885031 x[2,17]
   + 0.0870533976803923 x[3,1] + 0.080485716509691 x[3,2]
   + 0.0970557328559197 x[3,3] + 0.0148770140888923 x[3,4]
   + 0.0388904024285825 x[3,5] + 0.0856425624659453 x[3,6]
   + 0.0351930411769285 x[3,7] + 0.0731980228847202 x[3,8]
   + 0.0743948003424924 x[3,9] + 0.0854576944033626 x[3,10]
   + 0.018117070133105 x[3,11] + 0.0234490542539114 x[3,12]
   + 0.0647622012921305 x[3,13] + 0.0426461430684206 x[3,14]
   + 0.0167354246127501 x[3,15] + 0.0944092005915778 x[3,16]
   + 0.0287129290885031 x[3,17] >= 0
Bounds
 z <= 1
 -infinity <= cashProportion[1] <= 1
 -infinity <= cashProportion[2] <= 1
 -infinity <= cashProportion[3] <= 1
Binaries
 x[1,1] x[1,2] x[1,3] x[1,4] x[1,5] x[1,6] x[1,7] x[1,8] x[1,9] x[1,10]
 x[1,11] x[1,12] x[1,13] x[1,14] x[1,15] x[1,16] x[1,17] x[2,1] x[2,2]
 x[2,3] x[2,4] x[2,5] x[2,6] x[2,7] x[2,8] x[2,9] x[2,10] x[2,11] x[2,12]
 x[2,13] x[2,14] x[2,15] x[2,16] x[2,17] x[3,1] x[3,2] x[3,3] x[3,4] x[3,5]
 x[3,6] x[3,7] x[3,8] x[3,9] x[3,10] x[3,11] x[3,12] x[3,13] x[3,14]
 x[3,15] x[3,16] x[3,17]
End
