data/mps_files/q3/57_6.mps
NAME foo
ROWS
 N  OBJ
 E  allocateEach[1]
 E  allocateEach[2]
 E  allocateEach[3]
 E  allocateEach[4]
 E  allocateEach[5]
 E  allocateEach[6]
 E  allocateEach[7]
 E  allocateEach[8]
 E  allocateEach[9]
 E  allocateEach[10]
 E  allocateEach[11]
 E  allocateEach[12]
 E  allocateEach[13]
 E  allocateEach[14]
 E  allocateEach[15]
 E  allocateEach[16]
 E  allocateEach[17]
 E  allocateAllCash
 G  findWorstP[1,2]
 G  findWorstP[1,3]
 G  findWorstP[2,1]
 G  findWorstP[2,3]
 G  findWorstP[3,1]
 G  findWorstP[3,2]
COLUMNS
    z         OBJ       1
    z         findWorstP[1,2]  1
    z         findWorstP[1,3]  1
    z         findWorstP[2,1]  1
    z         findWorstP[2,3]  1
    z         findWorstP[3,1]  1
    z         findWorstP[3,2]  1
    cashProportion[1]  allocateAllCash  1
    cashProportion[1]  findWorstP[1,2]  4.4036858850858167e-02
    cashProportion[1]  findWorstP[1,3]  4.4036858850858167e-02
    cashProportion[1]  findWorstP[2,1]  -4.2503453405589205e-02
    cashProportion[1]  findWorstP[3,1]  -3.8919592122674554e-02
    cashProportion[2]  allocateAllCash  1
    cashProportion[2]  findWorstP[1,2]  -4.4036858850858167e-02
    cashProportion[2]  findWorstP[2,1]  4.2503453405589205e-02
    cashProportion[2]  findWorstP[2,3]  4.2503453405589205e-02
    cashProportion[2]  findWorstP[3,2]  -3.8919592122674554e-02
    cashProportion[3]  allocateAllCash  1
    cashProportion[3]  findWorstP[1,3]  -4.4036858850858167e-02
    cashProportion[3]  findWorstP[2,3]  -4.2503453405589205e-02
    cashProportion[3]  findWorstP[3,1]  3.8919592122674554e-02
    cashProportion[3]  findWorstP[3,2]  3.8919592122674554e-02
    MARKER    'MARKER'                 'INTORG'
    x[1,1]    allocateEach[1]  1
    x[1,1]    findWorstP[1,2]  8.5541598317791980e-03
    x[1,1]    findWorstP[1,3]  8.5541598317791980e-03
    x[1,1]    findWorstP[2,1]  -3.4874083519285941e-02
    x[1,1]    findWorstP[3,1]  -0.0870533976803923
    x[1,2]    allocateEach[2]  1
    x[1,2]    findWorstP[1,2]  9.7651734501777970e-02
    x[1,2]    findWorstP[1,3]  9.7651734501777970e-02
    x[1,2]    findWorstP[2,1]  -9.7290404845393683e-02
    x[1,2]    findWorstP[3,1]  -8.0485716509690983e-02
    x[1,3]    allocateEach[3]  1
    x[1,3]    findWorstP[1,2]  9.8752655973049427e-03
    x[1,3]    findWorstP[1,3]  9.8752655973049427e-03
    x[1,3]    findWorstP[2,1]  -8.6845181170970148e-02
    x[1,3]    findWorstP[3,1]  -9.7055732855919660e-02
    x[1,4]    allocateEach[4]  1
    x[1,4]    findWorstP[1,2]  8.3482875166514356e-02
    x[1,4]    findWorstP[1,3]  8.3482875166514356e-02
    x[1,4]    findWorstP[2,1]  -1.0563170757624056e-01
    x[1,4]    findWorstP[3,1]  -1.4877014088892348e-02
    x[1,5]    allocateEach[5]  1
    x[1,5]    findWorstP[1,2]  3.4458842050796509e-02
    x[1,5]    findWorstP[1,3]  3.4458842050796509e-02
    x[1,5]    findWorstP[2,1]  -1.4143024120709807e-02
    x[1,5]    findWorstP[3,1]  -3.8890402428582542e-02
    x[1,6]    allocateEach[6]  1
    x[1,6]    findWorstP[1,2]  7.3156231765988122e-02
    x[1,6]    findWorstP[1,3]  7.3156231765988122e-02
    x[1,6]    findWorstP[2,1]  -2.4365104664754011e-02
    x[1,6]    findWorstP[3,1]  -8.5642562465945343e-02
    x[1,7]    allocateEach[7]  1
    x[1,7]    findWorstP[1,2]  9.4128785793709327e-02
    x[1,7]    findWorstP[1,3]  9.4128785793709327e-02
    x[1,7]    findWorstP[2,1]  -5.6742110296461590e-03
    x[1,7]    findWorstP[3,1]  -3.5193041176928466e-02
    x[1,8]    allocateEach[8]  1
    x[1,8]    findWorstP[1,2]  1.0904627172943752e-01
    x[1,8]    findWorstP[1,3]  1.0904627172943752e-01
    x[1,8]    findWorstP[2,1]  -1.1093401338858782e-02
    x[1,8]    findWorstP[3,1]  -7.3198022884720160e-02
    x[1,9]    allocateEach[9]  1
    x[1,9]    findWorstP[1,2]  1.0013981702685146e-01
    x[1,9]    findWorstP[1,3]  1.0013981702685146e-01
    x[1,9]    findWorstP[2,1]  -1.0462225055785783e-01
    x[1,9]    findWorstP[3,1]  -7.4394800342492393e-02
    x[1,10]   allocateEach[10]  1
    x[1,10]   findWorstP[1,2]  2.3867977497165124e-02
    x[1,10]   findWorstP[1,3]  2.3867977497165124e-02
    x[1,10]   findWorstP[2,1]  -0.0822866857932207
    x[1,10]   findWorstP[3,1]  -8.5457694403362650e-02
    x[1,11]   allocateEach[11]  1
    x[1,11]   findWorstP[1,2]  4.5699250272478058e-02
    x[1,11]   findWorstP[1,3]  4.5699250272478058e-02
    x[1,11]   findWorstP[2,1]  -6.0323026245882476e-02
    x[1,11]   findWorstP[3,1]  -1.8117070133105005e-02
    x[1,12]   allocateEach[12]  1
    x[1,12]   findWorstP[1,2]  0.0887342705844792
    x[1,12]   findWorstP[1,3]  0.0887342705844792
    x[1,12]   findWorstP[2,1]  -2.8413558601636385e-02
    x[1,12]   findWorstP[3,1]  -2.3449054253911417e-02
    x[1,13]   allocateEach[13]  1
    x[1,13]   findWorstP[1,2]  9.0594827870927958e-02
    x[1,13]   findWorstP[1,3]  9.0594827870927958e-02
    x[1,13]   findWorstP[2,1]  -5.3511847837636815e-02
    x[1,13]   findWorstP[3,1]  -6.4762201292130450e-02
    x[1,14]   allocateEach[14]  1
    x[1,14]   findWorstP[1,2]  4.3013001882575709e-02
    x[1,14]   findWorstP[1,3]  4.3013001882575709e-02
    x[1,14]   findWorstP[2,1]  -4.2397194772075229e-03
    x[1,14]   findWorstP[3,1]  -4.2646143068420642e-02
    x[1,15]   allocateEach[15]  1
    x[1,15]   findWorstP[1,2]  2.1126683033699203e-02
    x[1,15]   findWorstP[1,3]  2.1126683033699203e-02
    x[1,15]   findWorstP[2,1]  -1.0295399001168845e-01
    x[1,15]   findWorstP[3,1]  -1.6735424612750054e-02
    x[1,16]   allocateEach[16]  1
    x[1,16]   findWorstP[1,2]  3.1431308004800013e-02
    x[1,16]   findWorstP[1,3]  3.1431308004800013e-02
    x[1,16]   findWorstP[2,1]  -7.9258314738072475e-02
    x[1,16]   findWorstP[3,1]  -0.0944092005915778
    x[1,17]   allocateEach[17]  1
    x[1,17]   findWorstP[1,2]  1.0018385388570231e-03
    x[1,17]   findWorstP[1,3]  1.0018385388570231e-03
    x[1,17]   findWorstP[2,1]  -6.1970035065349066e-02
    x[1,17]   findWorstP[3,1]  -2.8712929088503147e-02
    x[2,1]    allocateEach[1]  1
    x[2,1]    findWorstP[1,2]  -8.5541598317791980e-03
    x[2,1]    findWorstP[2,1]  3.4874083519285941e-02
    x[2,1]    findWorstP[2,3]  3.4874083519285941e-02
    x[2,1]    findWorstP[3,2]  -0.0870533976803923
    x[2,2]    allocateEach[2]  1
    x[2,2]    findWorstP[1,2]  -9.7651734501777970e-02
    x[2,2]    findWorstP[2,1]  9.7290404845393683e-02
    x[2,2]    findWorstP[2,3]  9.7290404845393683e-02
    x[2,2]    findWorstP[3,2]  -8.0485716509690983e-02
    x[2,3]    allocateEach[3]  1
    x[2,3]    findWorstP[1,2]  -9.8752655973049427e-03
    x[2,3]    findWorstP[2,1]  8.6845181170970148e-02
    x[2,3]    findWorstP[2,3]  8.6845181170970148e-02
    x[2,3]    findWorstP[3,2]  -9.7055732855919660e-02
    x[2,4]    allocateEach[4]  1
    x[2,4]    findWorstP[1,2]  -8.3482875166514356e-02
    x[2,4]    findWorstP[2,1]  1.0563170757624056e-01
    x[2,4]    findWorstP[2,3]  1.0563170757624056e-01
    x[2,4]    findWorstP[3,2]  -1.4877014088892348e-02
    x[2,5]    allocateEach[5]  1
    x[2,5]    findWorstP[1,2]  -3.4458842050796509e-02
    x[2,5]    findWorstP[2,1]  1.4143024120709807e-02
    x[2,5]    findWorstP[2,3]  1.4143024120709807e-02
    x[2,5]    findWorstP[3,2]  -3.8890402428582542e-02
    x[2,6]    allocateEach[6]  1
    x[2,6]    findWorstP[1,2]  -7.3156231765988122e-02
    x[2,6]    findWorstP[2,1]  2.4365104664754011e-02
    x[2,6]    findWorstP[2,3]  2.4365104664754011e-02
    x[2,6]    findWorstP[3,2]  -8.5642562465945343e-02
    x[2,7]    allocateEach[7]  1
    x[2,7]    findWorstP[1,2]  -9.4128785793709327e-02
    x[2,7]    findWorstP[2,1]  5.6742110296461590e-03
    x[2,7]    findWorstP[2,3]  5.6742110296461590e-03
    x[2,7]    findWorstP[3,2]  -3.5193041176928466e-02
    x[2,8]    allocateEach[8]  1
    x[2,8]    findWorstP[1,2]  -1.0904627172943752e-01
    x[2,8]    findWorstP[2,1]  1.1093401338858782e-02
    x[2,8]    findWorstP[2,3]  1.1093401338858782e-02
    x[2,8]    findWorstP[3,2]  -7.3198022884720160e-02
    x[2,9]    allocateEach[9]  1
    x[2,9]    findWorstP[1,2]  -1.0013981702685146e-01
    x[2,9]    findWorstP[2,1]  1.0462225055785783e-01
    x[2,9]    findWorstP[2,3]  1.0462225055785783e-01
    x[2,9]    findWorstP[3,2]  -7.4394800342492393e-02
    x[2,10]   allocateEach[10]  1
    x[2,10]   findWorstP[1,2]  -2.3867977497165124e-02
    x[2,10]   findWorstP[2,1]  0.0822866857932207
    x[2,10]   findWorstP[2,3]  0.0822866857932207
    x[2,10]   findWorstP[3,2]  -8.5457694403362650e-02
    x[2,11]   allocateEach[11]  1
    x[2,11]   findWorstP[1,2]  -4.5699250272478058e-02
    x[2,11]   findWorstP[2,1]  6.0323026245882476e-02
    x[2,11]   findWorstP[2,3]  6.0323026245882476e-02
    x[2,11]   findWorstP[3,2]  -1.8117070133105005e-02
    x[2,12]   allocateEach[12]  1
    x[2,12]   findWorstP[1,2]  -0.0887342705844792
    x[2,12]   findWorstP[2,1]  2.8413558601636385e-02
    x[2,12]   findWorstP[2,3]  2.8413558601636385e-02
    x[2,12]   findWorstP[3,2]  -2.3449054253911417e-02
    x[2,13]   allocateEach[13]  1
    x[2,13]   findWorstP[1,2]  -9.0594827870927958e-02
    x[2,13]   findWorstP[2,1]  5.3511847837636815e-02
    x[2,13]   findWorstP[2,3]  5.3511847837636815e-02
    x[2,13]   findWorstP[3,2]  -6.4762201292130450e-02
    x[2,14]   allocateEach[14]  1
    x[2,14]   findWorstP[1,2]  -4.3013001882575709e-02
    x[2,14]   findWorstP[2,1]  4.2397194772075229e-03
    x[2,14]   findWorstP[2,3]  4.2397194772075229e-03
    x[2,14]   findWorstP[3,2]  -4.2646143068420642e-02
    x[2,15]   allocateEach[15]  1
    x[2,15]   findWorstP[1,2]  -2.1126683033699203e-02
    x[2,15]   findWorstP[2,1]  1.0295399001168845e-01
    x[2,15]   findWorstP[2,3]  1.0295399001168845e-01
    x[2,15]   findWorstP[3,2]  -1.6735424612750054e-02
    x[2,16]   allocateEach[16]  1
    x[2,16]   findWorstP[1,2]  -3.1431308004800013e-02
    x[2,16]   findWorstP[2,1]  7.9258314738072475e-02
    x[2,16]   findWorstP[2,3]  7.9258314738072475e-02
    x[2,16]   findWorstP[3,2]  -0.0944092005915778
    x[2,17]   allocateEach[17]  1
    x[2,17]   findWorstP[1,2]  -1.0018385388570231e-03
    x[2,17]   findWorstP[2,1]  6.1970035065349066e-02
    x[2,17]   findWorstP[2,3]  6.1970035065349066e-02
    x[2,17]   findWorstP[3,2]  -2.8712929088503147e-02
    x[3,1]    allocateEach[1]  1
    x[3,1]    findWorstP[1,3]  -8.5541598317791980e-03
    x[3,1]    findWorstP[2,3]  -3.4874083519285941e-02
    x[3,1]    findWorstP[3,1]  0.0870533976803923
    x[3,1]    findWorstP[3,2]  0.0870533976803923
    x[3,2]    allocateEach[2]  1
    x[3,2]    findWorstP[1,3]  -9.7651734501777970e-02
    x[3,2]    findWorstP[2,3]  -9.7290404845393683e-02
    x[3,2]    findWorstP[3,1]  8.0485716509690983e-02
    x[3,2]    findWorstP[3,2]  8.0485716509690983e-02
    x[3,3]    allocateEach[3]  1
    x[3,3]    findWorstP[1,3]  -9.8752655973049427e-03
    x[3,3]    findWorstP[2,3]  -8.6845181170970148e-02
    x[3,3]    findWorstP[3,1]  9.7055732855919660e-02
    x[3,3]    findWorstP[3,2]  9.7055732855919660e-02
    x[3,4]    allocateEach[4]  1
    x[3,4]    findWorstP[1,3]  -8.3482875166514356e-02
    x[3,4]    findWorstP[2,3]  -1.0563170757624056e-01
    x[3,4]    findWorstP[3,1]  1.4877014088892348e-02
    x[3,4]    findWorstP[3,2]  1.4877014088892348e-02
    x[3,5]    allocateEach[5]  1
    x[3,5]    findWorstP[1,3]  -3.4458842050796509e-02
    x[3,5]    findWorstP[2,3]  -1.4143024120709807e-02
    x[3,5]    findWorstP[3,1]  3.8890402428582542e-02
    x[3,5]    findWorstP[3,2]  3.8890402428582542e-02
    x[3,6]    allocateEach[6]  1
    x[3,6]    findWorstP[1,3]  -7.3156231765988122e-02
    x[3,6]    findWorstP[2,3]  -2.4365104664754011e-02
    x[3,6]    findWorstP[3,1]  8.5642562465945343e-02
    x[3,6]    findWorstP[3,2]  8.5642562465945343e-02
    x[3,7]    allocateEach[7]  1
    x[3,7]    findWorstP[1,3]  -9.4128785793709327e-02
    x[3,7]    findWorstP[2,3]  -5.6742110296461590e-03
    x[3,7]    findWorstP[3,1]  3.5193041176928466e-02
    x[3,7]    findWorstP[3,2]  3.5193041176928466e-02
    x[3,8]    allocateEach[8]  1
    x[3,8]    findWorstP[1,3]  -1.0904627172943752e-01
    x[3,8]    findWorstP[2,3]  -1.1093401338858782e-02
    x[3,8]    findWorstP[3,1]  7.3198022884720160e-02
    x[3,8]    findWorstP[3,2]  7.3198022884720160e-02
    x[3,9]    allocateEach[9]  1
    x[3,9]    findWorstP[1,3]  -1.0013981702685146e-01
    x[3,9]    findWorstP[2,3]  -1.0462225055785783e-01
    x[3,9]    findWorstP[3,1]  7.4394800342492393e-02
    x[3,9]    findWorstP[3,2]  7.4394800342492393e-02
    x[3,10]   allocateEach[10]  1
    x[3,10]   findWorstP[1,3]  -2.3867977497165124e-02
    x[3,10]   findWorstP[2,3]  -0.0822866857932207
    x[3,10]   findWorstP[3,1]  8.5457694403362650e-02
    x[3,10]   findWorstP[3,2]  8.5457694403362650e-02
    x[3,11]   allocateEach[11]  1
    x[3,11]   findWorstP[1,3]  -4.5699250272478058e-02
    x[3,11]   findWorstP[2,3]  -6.0323026245882476e-02
    x[3,11]   findWorstP[3,1]  1.8117070133105005e-02
    x[3,11]   findWorstP[3,2]  1.8117070133105005e-02
    x[3,12]   allocateEach[12]  1
    x[3,12]   findWorstP[1,3]  -0.0887342705844792
    x[3,12]   findWorstP[2,3]  -2.8413558601636385e-02
    x[3,12]   findWorstP[3,1]  2.3449054253911417e-02
    x[3,12]   findWorstP[3,2]  2.3449054253911417e-02
    x[3,13]   allocateEach[13]  1
    x[3,13]   findWorstP[1,3]  -9.0594827870927958e-02
    x[3,13]   findWorstP[2,3]  -5.3511847837636815e-02
    x[3,13]   findWorstP[3,1]  6.4762201292130450e-02
    x[3,13]   findWorstP[3,2]  6.4762201292130450e-02
    x[3,14]   allocateEach[14]  1
    x[3,14]   findWorstP[1,3]  -4.3013001882575709e-02
    x[3,14]   findWorstP[2,3]  -4.2397194772075229e-03
    x[3,14]   findWorstP[3,1]  4.2646143068420642e-02
    x[3,14]   findWorstP[3,2]  4.2646143068420642e-02
    x[3,15]   allocateEach[15]  1
    x[3,15]   findWorstP[1,3]  -2.1126683033699203e-02
    x[3,15]   findWorstP[2,3]  -1.0295399001168845e-01
    x[3,15]   findWorstP[3,1]  1.6735424612750054e-02
    x[3,15]   findWorstP[3,2]  1.6735424612750054e-02
    x[3,16]   allocateEach[16]  1
    x[3,16]   findWorstP[1,3]  -3.1431308004800013e-02
    x[3,16]   findWorstP[2,3]  -7.9258314738072475e-02
    x[3,16]   findWorstP[3,1]  0.0944092005915778
    x[3,16]   findWorstP[3,2]  0.0944092005915778
    x[3,17]   allocateEach[17]  1
    x[3,17]   findWorstP[1,3]  -1.0018385388570231e-03
    x[3,17]   findWorstP[2,3]  -6.1970035065349066e-02
    x[3,17]   findWorstP[3,1]  2.8712929088503147e-02
    x[3,17]   findWorstP[3,2]  2.8712929088503147e-02
    MARKER    'MARKER'                 'INTEND'
RHS
    RHS1      allocateEach[1]  1
    RHS1      allocateEach[2]  1
    RHS1      allocateEach[3]  1
    RHS1      allocateEach[4]  1
    RHS1      allocateEach[5]  1
    RHS1      allocateEach[6]  1
    RHS1      allocateEach[7]  1
    RHS1      allocateEach[8]  1
    RHS1      allocateEach[9]  1
    RHS1      allocateEach[10]  1
    RHS1      allocateEach[11]  1
    RHS1      allocateEach[12]  1
    RHS1      allocateEach[13]  1
    RHS1      allocateEach[14]  1
    RHS1      allocateEach[15]  1
    RHS1      allocateEach[16]  1
    RHS1      allocateEach[17]  1
    RHS1      allocateAllCash  1
BOUNDS
 UP BND1      z         1
 MI BND1      cashProportion[1]
 UP BND1      cashProportion[1]  1
 MI BND1      cashProportion[2]
 UP BND1      cashProportion[2]  1
 MI BND1      cashProportion[3]
 UP BND1      cashProportion[3]  1
 BV BND1      x[1,1]  
 BV BND1      x[1,2]  
 BV BND1      x[1,3]  
 BV BND1      x[1,4]  
 BV BND1      x[1,5]  
 BV BND1      x[1,6]  
 BV BND1      x[1,7]  
 BV BND1      x[1,8]  
 BV BND1      x[1,9]  
 BV BND1      x[1,10] 
 BV BND1      x[1,11] 
 BV BND1      x[1,12] 
 BV BND1      x[1,13] 
 BV BND1      x[1,14] 
 BV BND1      x[1,15] 
 BV BND1      x[1,16] 
 BV BND1      x[1,17] 
 BV BND1      x[2,1]  
 BV BND1      x[2,2]  
 BV BND1      x[2,3]  
 BV BND1      x[2,4]  
 BV BND1      x[2,5]  
 BV BND1      x[2,6]  
 BV BND1      x[2,7]  
 BV BND1      x[2,8]  
 BV BND1      x[2,9]  
 BV BND1      x[2,10] 
 BV BND1      x[2,11] 
 BV BND1      x[2,12] 
 BV BND1      x[2,13] 
 BV BND1      x[2,14] 
 BV BND1      x[2,15] 
 BV BND1      x[2,16] 
 BV BND1      x[2,17] 
 BV BND1      x[3,1]  
 BV BND1      x[3,2]  
 BV BND1      x[3,3]  
 BV BND1      x[3,4]  
 BV BND1      x[3,5]  
 BV BND1      x[3,6]  
 BV BND1      x[3,7]  
 BV BND1      x[3,8]  
 BV BND1      x[3,9]  
 BV BND1      x[3,10] 
 BV BND1      x[3,11] 
 BV BND1      x[3,12] 
 BV BND1      x[3,13] 
 BV BND1      x[3,14] 
 BV BND1      x[3,15] 
 BV BND1      x[3,16] 
 BV BND1      x[3,17] 
ENDATA
